NAME : S-G-150-14.1992.tour
COMMENT : Length = 1992
COMMENT : Found by LKH [Keld Helsgaun] Thu May 17 23:18:20 2018
TYPE : TOUR
DIMENSION : 31
TOUR_SECTION
1
31
27
28
4
8
2
16
13
20
26
24
23
5
10
15
7
9
19
17
25
18
11
14
6
3
12
29
30
21
22
-1
EOF
